NAME : single
TYPE : ATSP
DIMENSION : 11
EDGE_WEIGHT_TYPE : EXPLICIT
EDGE_WEIGHT_FORMAT : FULL_MATRIX
EDGE_WEIGHT_SECTION
0 2975 0 6424 6741 316 2788 6437 2720 1924 2399 
199595 0 2974 5338 5631 2787 1530 5136 1701 4324 1944 
199697 2974 0 6503 6835 315 2787 6494 2719 1924 2398 
198580 5338 6503 0 872 6820 4140 767 4066 6980 4397 
198520 5631 6835 872 0 7151 4454 1311 4397 7336 4736 
199747 2787 315 6820 7151 0 3104 6810 3022 1773 2677 
199337 1530 2787 4140 4454 3104 0 4003 314 3051 487 
198621 5136 6494 767 1311 6810 4003 0 4051 6972 4383 
199301 1701 2719 4066 4397 3022 314 4051 0 2979 373 
199396 4324 1924 6980 7336 1773 3051 6972 2979 0 2743 
199248 1944 2398 4397 4736 2677 487 4383 373 2743 0 
EOF